(define-fun
  v3
  ((x Int) (y Int) (z Int)) Int (ite (<= x 0) z 0))
(define-fun
  j3
  ((x Int)) Int x)
(define-fun
  h6
  () Int (+ 2 (* 2 (+ 2 2))))
(define-fun
  h3
  ((x Int)) Int x)
(define-fun
  h2
  ((x Int)) Int x)
(define-fun
  h1
  () Int (+ 2 (* 2 (+ 2 2))))
(define-fun
  g4
  ((x Int) (y Int)) Int y)
(define-fun
  g0
  ((x Int)) Int x)
(define-fun
  f6
  ((x Int)) Int (* x x))
(define-fun-rec
  u6
  ((x Int) (y Int)) Int (ite (<= x 0) y (f6 (u6 (- x 1) y))))
(define-fun
  v6
  () Int (u6 1 h6))
(define-fun
  f5
  ((x Int)) Int (* (* x x) x))
(define-fun-rec
  u5
  ((x Int) (y Int)) Int (ite (<= x 0) y (f5 (u5 (- x 1) y))))
(define-fun
  v5
  () Int (u5 1 v6))
(define-fun
  f4
  ((x Int)) Int (mod v5 (+ 1 x)))
(define-fun-rec
  t4
  ((x Int)) Int (ite (<= (f4 x) 0) x (t4 (+ x 1))))
(define-fun-rec
  u4
  ((x Int)) Int (ite (<= x 0) (t4 0) (t4 (+ (u4 (- x 1)) 1))))
(define-fun
  v4
  ((x Int) (y Int)) Int (u4 y))
(define-fun
  f3
  ((x Int) (y Int)) Int (+ (v4 x y) x))
(define-fun-rec
  u3
  ((x Int) (y Int) (z Int)) Int
  (ite (<= x 0) y (f3 (u3 (- x 1) y z) (v3 (- x 1) y z))))
(define-fun
  w3
  ((x Int)) Int (u3 x 1 x))
(define-fun
  f2
  ((x Int)) Int (* x x))
(define-fun-rec
  u2
  ((x Int) (y Int)) Int (ite (<= x 0) y (f2 (u2 (- x 1) y))))
(define-fun
  v2
  ((x Int)) Int (u2 2 x))
(define-fun
  f1
  ((x Int)) Int (* (* (v2 x) x) x))
(define-fun-rec
  u1
  ((x Int) (y Int)) Int (ite (<= x 0) y (f1 (u1 (- x 1) y))))
(define-fun
  v1
  () Int (u1 1 h1))
(define-fun
  f0
  ((x Int)) Int (mod v1 (+ 1 x)))
(define-fun-rec
  t0
  ((x Int)) Int (ite (<= (f0 x) 0) x (t0 (+ x 1))))
(define-fun-rec
  u0
  ((x Int)) Int (ite (<= x 0) (t0 0) (t0 (+ (u0 (- x 1)) 1))))
(define-fun
  small
  ((x Int)) Int (+ (u0 x) 1))
(assert-not
  (forall ((c Int)) (or (not (>= c 0)) (= (small c) (w3 c)))))
